120
1000
200
200
200
199
198
198
198
197
197
197
197
196
195
195
195
194
193
192
192
192
191
191
191
190
189
189
189
188
188
188
188
187
187
186
186
186
185
184
184
184
183
183
182
182
182
181
181
181
180
180
180
180
180
179
178
178
178
177
177
177
177
176
176
175
175
174
174
173
173
173
172
172
171
171
171
171
171
170
170
170
169
169
169
168
166
166
166
166
164
164
163
163
163
162
162
162
162
161
161
160
160
160
159
158
158
156
155
154
154
153
153
152
152
152
151
151
150
150
150
150
